\ Equation counts
\     Total        E        G        L        N        X        C        B
\	118	118	0	0
\
\ Variable counts
\                  x        b        i      s1s      s2s       sc       si
\     Total     cont   binary  integer     sos1     sos2    scont     sint
\	40	40

\ Nonzero counts
\     Total    const       NL      DLL
\
\
Minimize
 obj: [ + 21.5 x_1 * x_4 - 10.5 x_1 * x_6 + 17.0 x_1 * x_7 - 1.5 x_1 * x_10 + 24.0 x_1 * x_12 - 21.5 x_1 * x_13 - 5.0 x_1 * x_14 - 8.0 x_1 * x_17 + 5.0 x_1 * x_18 + 17.5 x_1 * x_21 + 10.0 x_1 * x_23 - 17.5 x_1 * x_25 + 7.5 x_1 * x_26 + 13.0 x_1 * x_27 + 23.5 x_1 * x_28 + 11.5 x_1 * x_29 - 11.5 x_1 * x_31 + 8.5 x_1 * x_34 - 5.5 x_1 * x_36 - 18.0 x_1 * x_37 - 13.0 x_1 * x_38 + 10.5 x_1 * x_39 - 20.5 x_2 * x_2 - 22.0 x_2 * x_3 + 6.5 x_2 * x_4 - 12.5 x_2 * x_6 + 5.5 x_2 * x_11 - 1.5 x_2 * x_14 - 14.5 x_2 * x_15 + 4.0 x_2 * x_17 + 21.0 x_2 * x_18 + 11.0 x_2 * x_19 - 22.0 x_2 * x_20 - 14.0 x_2 * x_22 - 13.0 x_2 * x_23 + 19.0 x_2 * x_24 + 16.0 x_2 * x_26 - 24.0 x_2 * x_28 + 12.0 x_2 * x_29 + 22.5 x_2 * x_30 - 20.0 x_2 * x_31 + 14.5 x_2 * x_32 - 20.0 x_2 * x_33 + 19.5 x_2 * x_35 - 10.0 x_2 * x_36 - 5.5 x_2 * x_38 - 22.0 x_3 * x_2 + 4.0 x_3 * x_4 + 0.5 x_3 * x_5 - 7.0 x_3 * x_6 + 14.0 x_3 * x_8 + 20.0 x_3 * x_9 + 20.5 x_3 * x_11 - 16.5 x_3 * x_12 + 21.0 x_3 * x_13 + 22.5 x_3 * x_19 + 17.0 x_3 * x_21 + 17.5 x_3 * x_24 + 14.5 x_3 * x_27 + 14.5 x_3 * x_28 + 20.0 x_3 * x_30 + 4.5 x_3 * x_31 - 24.5 x_3 * x_34 - 13.5 x_3 * x_36 + 20.0 x_3 * x_37 + 10.0 x_3 * x_39 + 21.5 x_4 * x_1 + 6.5 x_4 * x_2 + 4.0 x_4 * x_3 - 21.5 x_4 * x_4 + 23.0 x_4 * x_5 + 12.5 x_4 * x_6 - 11.0 x_4 * x_7 + 6.0 x_4 * x_8 + 14.0 x_4 * x_13 + 13.0 x_4 * x_15 + 5.5 x_4 * x_16 + 15.5 x_4 * x_18 + 9.0 x_4 * x_21 - 7.5 x_4 * x_22 - 4.0 x_4 * x_23 + 1.0 x_4 * x_24 - 6.0 x_4 * x_26 + 17.0 x_4 * x_27 + 1.0 x_4 * x_28 - 6.5 x_4 * x_30 + 4.5 x_4 * x_32 + 12.5 x_4 * x_33 + 3.5 x_4 * x_34 - 19.0 x_4 * x_35 + 0.5 x_4 * x_37 - 7.0 x_4 * x_38 + 9.5 x_4 * x_39 + 0.5 x_5 * x_3 + 23.0 x_5 * x_4 + 24.5 x_5 * x_5 + 24.5 x_5 * x_6 + 8.5 x_5 * x_7 + 17.5 x_5 * x_9 + 24.5 x_5 * x_10 + 13.0 x_5 * x_11 - 9.0 x_5 * x_13 + 24.5 x_5 * x_17 - 20.5 x_5 * x_18 - 19.0 x_5 * x_19 + 23.0 x_5 * x_22 + 3.0 x_5 * x_24 + 0.5 x_5 * x_25 + 3.0 x_5 * x_27 - 17.0 x_5 * x_28 + 14.5 x_5 * x_29 - 6.0 x_5 * x_34 - 10.0 x_5 * x_37 + 7.5 x_5 * x_38 - 10.5 x_6 * x_1 - 12.5 x_6 * x_2 - 7.0 x_6 * x_3 + 12.5 x_6 * x_4 + 24.5 x_6 * x_5 - 17.5 x_6 * x_7 - 22.0 x_6 * x_14 + 8.5 x_6 * x_15 - 22.5 x_6 * x_16 + 3.0 x_6 * x_17 - 21.5 x_6 * x_19 - 6.0 x_6 * x_21 - 18.5 x_6 * x_27 - 7.0 x_6 * x_28 + 9.0 x_6 * x_30 - 5.5 x_6 * x_31 + 2.0 x_6 * x_32 - 7.5 x_6 * x_37 + 17.0 x_7 * x_1 - 11.0 x_7 * x_4 + 8.5 x_7 * x_5 - 17.5 x_7 * x_6 + 5.0 x_7 * x_7 + 8.0 x_7 * x_8 + 23.5 x_7 * x_9 + 10.5 x_7 * x_10 - 18.5 x_7 * x_11 + 10.0 x_7 * x_12 + 0.5 x_7 * x_17 - 8.5 x_7 * x_20 - 7.5 x_7 * x_21 - 23.0 x_7 * x_22 + 21.0 x_7 * x_23 + 8.5 x_7 * x_24 - 19.0 x_7 * x_32 - 11.0 x_7 * x_33 + 17.5 x_7 * x_34 + 22.5 x_7 * x_37 + 0.5 x_7 * x_38 + 18.5 x_7 * x_40 + 14.0 x_8 * x_3 + 6.0 x_8 * x_4 + 8.0 x_8 * x_7 - 7.0 x_8 * x_8 + 21.5 x_8 * x_9 - 9.5 x_8 * x_13 - 10.0 x_8 * x_15 - 22.5 x_8 * x_16 + 12.0 x_8 * x_18 + 23.5 x_8 * x_20 - 13.5 x_8 * x_22 - 16.5 x_8 * x_24 + 0.5 x_8 * x_25 + 13.0 x_8 * x_27 - 5.5 x_8 * x_29 + 24.0 x_8 * x_32 + 17.0 x_8 * x_34 - 13.5 x_8 * x_35 + 5.5 x_8 * x_36 - 21.5 x_8 * x_38 - 20.5 x_8 * x_40 + 20.0 x_9 * x_3 + 17.5 x_9 * x_5 + 23.5 x_9 * x_7 + 21.5 x_9 * x_8 + 6.5 x_9 * x_9 - 6.5 x_9 * x_12 + 3.0 x_9 * x_14 + 11.5 x_9 * x_19 + 8.0 x_9 * x_20 + 1.5 x_9 * x_22 + 24.0 x_9 * x_24 + 10.5 x_9 * x_25 - 2.5 x_9 * x_27 - 4.5 x_9 * x_28 - 22.0 x_9 * x_29 - 19.5 x_9 * x_30 + 7.0 x_9 * x_32 + 10.5 x_9 * x_33 - 11.5 x_9 * x_35 + 4.5 x_9 * x_36 - 19.5 x_9 * x_39 + 18.5 x_9 * x_40 - 1.5 x_10 * x_1 + 24.5 x_10 * x_5 + 10.5 x_10 * x_7 + 4.0 x_10 * x_12 + 1.5 x_10 * x_13 + 9.0 x_10 * x_14 + 22.5 x_10 * x_16 - 5.0 x_10 * x_17 + 14.5 x_10 * x_19 - 17.0 x_10 * x_22 + 15.5 x_10 * x_23 + 18.5 x_10 * x_24 + 24.5 x_10 * x_25 - 5.5 x_10 * x_26 - 6.0 x_10 * x_27 + 9.0 x_10 * x_30 + 22.0 x_10 * x_32 + 13.5 x_10 * x_33 - 5.5 x_10 * x_36 - 13.5 x_10 * x_38 + 5.5 x_11 * x_2 + 20.5 x_11 * x_3 + 13.0 x_11 * x_5 - 18.5 x_11 * x_7 - 4.5 x_11 * x_11 - 19.0 x_11 * x_13 + 5.0 x_11 * x_14 + 18.5 x_11 * x_15 - 12.5 x_11 * x_16 - 20.5 x_11 * x_17 - 4.0 x_11 * x_18 + 0.5 x_11 * x_19 + 24.5 x_11 * x_25 + 10.5 x_11 * x_26 - 14.0 x_11 * x_28 - 0.5 x_11 * x_30 + 7.0 x_11 * x_31 - 4.5 x_11 * x_32 - 5.0 x_11 * x_34 - 20.5 x_11 * x_36 + 10.0 x_11 * x_39 + 24.0 x_12 * x_1 - 16.5 x_12 * x_3 + 10.0 x_12 * x_7 - 6.5 x_12 * x_9 + 4.0 x_12 * x_10 - 1.5 x_12 * x_12 + 24.5 x_12 * x_14 - 20.0 x_12 * x_15 - 19.0 x_12 * x_18 + 13.0 x_12 * x_19 + 1.0 x_12 * x_20 + 20.5 x_12 * x_21 + 8.0 x_12 * x_22 - 21.0 x_12 * x_24 - 10.0 x_12 * x_29 + 17.0 x_12 * x_30 + 18.5 x_12 * x_31 - 12.0 x_12 * x_32 - 11.5 x_12 * x_33 - 1.0 x_12 * x_35 + 15.5 x_12 * x_36 + 0.5 x_12 * x_37 - 8.0 x_12 * x_40 - 21.5 x_13 * x_1 + 21.0 x_13 * x_3 + 14.0 x_13 * x_4 - 9.0 x_13 * x_5 - 9.5 x_13 * x_8 + 1.5 x_13 * x_10 - 19.0 x_13 * x_11 + 1.0 x_13 * x_14 + 3.0 x_13 * x_16 + 7.0 x_13 * x_18 - 14.5 x_13 * x_21 + 23.5 x_13 * x_22 - 20.0 x_13 * x_23 - 5.5 x_13 * x_25 - 20.0 x_13 * x_26 + 11.5 x_13 * x_27 + 12.5 x_13 * x_28 + 21.0 x_13 * x_29 - 18.5 x_13 * x_30 - 6.0 x_13 * x_31 + 8.0 x_13 * x_32 + 4.0 x_13 * x_33 + 5.0 x_13 * x_34 - 20.5 x_13 * x_36 + 18.0 x_13 * x_38 - 5.0 x_14 * x_1 - 1.5 x_14 * x_2 - 22.0 x_14 * x_6 + 3.0 x_14 * x_9 + 9.0 x_14 * x_10 + 5.0 x_14 * x_11 + 24.5 x_14 * x_12 + 1.0 x_14 * x_13 - 9.5 x_14 * x_15 - 8.0 x_14 * x_16 - 14.5 x_14 * x_18 - 7.0 x_14 * x_19 - 6.5 x_14 * x_20 + 1.0 x_14 * x_21 - 5.5 x_14 * x_22 + 5.0 x_14 * x_23 + 8.5 x_14 * x_24 + 8.5 x_14 * x_25 + 4.0 x_14 * x_27 + 8.0 x_14 * x_28 + 2.0 x_14 * x_31 - 15.5 x_14 * x_35 - 19.5 x_14 * x_36 - 23.0 x_14 * x_37 + 19.0 x_14 * x_38 - 14.5 x_15 * x_2 + 13.0 x_15 * x_4 + 8.5 x_15 * x_6 - 10.0 x_15 * x_8 + 18.5 x_15 * x_11 - 20.0 x_15 * x_12 - 9.5 x_15 * x_14 + 10.5 x_15 * x_15 + 17.5 x_15 * x_16 - 15.0 x_15 * x_18 + 8.0 x_15 * x_20 - 21.0 x_15 * x_21 + 12.5 x_15 * x_23 - 3.5 x_15 * x_24 + 17.5 x_15 * x_25 - 20.0 x_15 * x_26 + 20.0 x_15 * x_27 - 18.5 x_15 * x_28 + 21.5 x_15 * x_29 + 21.5 x_15 * x_31 - 13.0 x_15 * x_32 - 17.0 x_15 * x_33 + 8.5 x_15 * x_34 - 3.0 x_15 * x_36 + 8.5 x_15 * x_37 + 13.5 x_15 * x_39 + 5.5 x_16 * x_4 - 22.5 x_16 * x_6 - 22.5 x_16 * x_8 + 22.5 x_16 * x_10 - 12.5 x_16 * x_11 + 3.0 x_16 * x_13 - 8.0 x_16 * x_14 + 17.5 x_16 * x_15 - 15.5 x_16 * x_17 + 21.0 x_16 * x_22 + 24.5 x_16 * x_24 + 11.5 x_16 * x_25 - 14.5 x_16 * x_27 - 12.0 x_16 * x_28 + 15.5 x_16 * x_30 - 12.0 x_16 * x_31 - 12.5 x_16 * x_33 + 18.0 x_16 * x_35 + 23.5 x_16 * x_36 + 13.0 x_16 * x_37 - 12.0 x_16 * x_40 - 8.0 x_17 * x_1 + 4.0 x_17 * x_2 + 24.5 x_17 * x_5 + 3.0 x_17 * x_6 + 0.5 x_17 * x_7 - 5.0 x_17 * x_10 - 20.5 x_17 * x_11 - 15.5 x_17 * x_16 - 3.5 x_17 * x_17 - 7.0 x_17 * x_19 + 21.0 x_17 * x_23 - 11.0 x_17 * x_24 - 16.5 x_17 * x_25 + 8.0 x_17 * x_26 + 9.5 x_17 * x_27 + 16.5 x_17 * x_28 - 4.0 x_17 * x_29 - 3.0 x_17 * x_30 - 7.5 x_17 * x_31 + 5.0 x_17 * x_32 - 13.0 x_17 * x_34 + 14.5 x_17 * x_36 + 18.0 x_17 * x_37 + 16.0 x_17 * x_38 + 19.5 x_17 * x_39 + 5.0 x_18 * x_1 + 21.0 x_18 * x_2 + 15.5 x_18 * x_4 - 20.5 x_18 * x_5 + 12.0 x_18 * x_8 - 4.0 x_18 * x_11 - 19.0 x_18 * x_12 + 7.0 x_18 * x_13 - 14.5 x_18 * x_14 - 15.0 x_18 * x_15 + 16.5 x_18 * x_18 + 17.5 x_18 * x_19 + 13.0 x_18 * x_20 - 10.0 x_18 * x_22 + 1.5 x_18 * x_23 - 13.0 x_18 * x_24 + 11.0 x_18 * x_28 - 18.0 x_18 * x_29 + 17.5 x_18 * x_30 - 2.5 x_18 * x_31 - 8.0 x_18 * x_33 + 20.0 x_18 * x_34 + 23.5 x_18 * x_36 - 18.5 x_18 * x_37 + 3.0 x_18 * x_38 + 17.5 x_18 * x_39 - 17.5 x_18 * x_40 + 11.0 x_19 * x_2 + 22.5 x_19 * x_3 - 19.0 x_19 * x_5 - 21.5 x_19 * x_6 + 11.5 x_19 * x_9 + 14.5 x_19 * x_10 + 0.5 x_19 * x_11 + 13.0 x_19 * x_12 - 7.0 x_19 * x_14 - 7.0 x_19 * x_17 + 17.5 x_19 * x_18 + 8.0 x_19 * x_19 - 17.5 x_19 * x_20 + 17.5 x_19 * x_24 + 9.5 x_19 * x_25 - 7.5 x_19 * x_26 + 10.5 x_19 * x_28 - 22.0 x_19 * x_29 - 9.5 x_19 * x_31 + 24.5 x_19 * x_33 - 24.0 x_19 * x_34 - 8.0 x_19 * x_35 + 12.0 x_19 * x_36 + 23.0 x_19 * x_37 - 14.0 x_19 * x_38 - 22.0 x_20 * x_2 - 8.5 x_20 * x_7 + 23.5 x_20 * x_8 + 8.0 x_20 * x_9 + 1.0 x_20 * x_12 - 6.5 x_20 * x_14 + 8.0 x_20 * x_15 + 13.0 x_20 * x_18 - 17.5 x_20 * x_19 + 23.5 x_20 * x_21 + 22.0 x_20 * x_22 + 15.0 x_20 * x_23 + 23.5 x_20 * x_24 - 5.5 x_20 * x_27 + 6.5 x_20 * x_28 - 17.0 x_20 * x_29 - 6.5 x_20 * x_30 - 19.5 x_20 * x_31 - 20.0 x_20 * x_33 + 11.5 x_20 * x_35 - 6.5 x_20 * x_36 + 24.5 x_20 * x_39 + 5.0 x_20 * x_40 + 17.5 x_21 * x_1 + 17.0 x_21 * x_3 + 9.0 x_21 * x_4 - 6.0 x_21 * x_6 - 7.5 x_21 * x_7 + 20.5 x_21 * x_12 - 14.5 x_21 * x_13 + 1.0 x_21 * x_14 - 21.0 x_21 * x_15 + 23.5 x_21 * x_20 - 22.0 x_21 * x_22 - 4.5 x_21 * x_24 + 3.5 x_21 * x_25 + 20.5 x_21 * x_26 - 9.5 x_21 * x_28 - 16.0 x_21 * x_29 - 19.0 x_21 * x_34 - 3.5 x_21 * x_36 - 10.0 x_21 * x_38 + 7.5 x_21 * x_39 - 14.0 x_22 * x_2 - 7.5 x_22 * x_4 + 23.0 x_22 * x_5 - 23.0 x_22 * x_7 - 13.5 x_22 * x_8 + 1.5 x_22 * x_9 - 17.0 x_22 * x_10 + 8.0 x_22 * x_12 + 23.5 x_22 * x_13 - 5.5 x_22 * x_14 + 21.0 x_22 * x_16 - 10.0 x_22 * x_18 + 22.0 x_22 * x_20 - 22.0 x_22 * x_21 + 16.5 x_22 * x_22 + 3.0 x_22 * x_23 - 3.0 x_22 * x_24 + 7.0 x_22 * x_26 - 7.0 x_22 * x_28 - 5.0 x_22 * x_30 - 19.0 x_22 * x_32 - 18.0 x_22 * x_37 - 15.5 x_22 * x_38 + 14.5 x_22 * x_40 + 10.0 x_23 * x_1 - 13.0 x_23 * x_2 - 4.0 x_23 * x_4 + 21.0 x_23 * x_7 + 15.5 x_23 * x_10 - 20.0 x_23 * x_13 + 5.0 x_23 * x_14 + 12.5 x_23 * x_15 + 21.0 x_23 * x_17 + 1.5 x_23 * x_18 + 15.0 x_23 * x_20 + 3.0 x_23 * x_22 + 5.0 x_23 * x_23 + 10.0 x_23 * x_25 - 14.0 x_23 * x_26 - 3.5 x_23 * x_27 + 14.0 x_23 * x_30 + 18.0 x_23 * x_32 - 7.5 x_23 * x_33 + 13.5 x_23 * x_34 - 22.5 x_23 * x_35 + 1.5 x_23 * x_36 + 14.0 x_23 * x_37 + 17.5 x_23 * x_40 + 19.0 x_24 * x_2 + 17.5 x_24 * x_3 + 1.0 x_24 * x_4 + 3.0 x_24 * x_5 + 8.5 x_24 * x_7 - 16.5 x_24 * x_8 + 24.0 x_24 * x_9 + 18.5 x_24 * x_10 - 21.0 x_24 * x_12 + 8.5 x_24 * x_14 - 3.5 x_24 * x_15 + 24.5 x_24 * x_16 - 11.0 x_24 * x_17 - 13.0 x_24 * x_18 + 17.5 x_24 * x_19 + 23.5 x_24 * x_20 - 4.5 x_24 * x_21 - 3.0 x_24 * x_22 + 16.0 x_24 * x_24 - 13.0 x_24 * x_29 + 4.0 x_24 * x_30 - 13.0 x_24 * x_32 - 20.5 x_24 * x_34 - 7.0 x_24 * x_36 - 9.0 x_24 * x_39 - 15.0 x_24 * x_40 - 17.5 x_25 * x_1 + 0.5 x_25 * x_5 + 0.5 x_25 * x_8 + 10.5 x_25 * x_9 + 24.5 x_25 * x_10 + 24.5 x_25 * x_11 - 5.5 x_25 * x_13 + 8.5 x_25 * x_14 + 17.5 x_25 * x_15 + 11.5 x_25 * x_16 - 16.5 x_25 * x_17 + 9.5 x_25 * x_19 + 3.5 x_25 * x_21 + 10.0 x_25 * x_23 + 22.5 x_25 * x_25 + 0.5 x_25 * x_26 + 4.0 x_25 * x_27 + 23.5 x_25 * x_28 - 13.5 x_25 * x_29 - 14.0 x_25 * x_30 + 19.5 x_25 * x_31 - 3.0 x_25 * x_32 + 10.5 x_25 * x_34 + 24.5 x_25 * x_35 - 8.5 x_25 * x_36 - 24.5 x_25 * x_37 - 12.0 x_25 * x_39 + 17.0 x_25 * x_40 + 7.5 x_26 * x_1 + 16.0 x_26 * x_2 - 6.0 x_26 * x_4 - 5.5 x_26 * x_10 + 10.5 x_26 * x_11 - 20.0 x_26 * x_13 - 20.0 x_26 * x_15 + 8.0 x_26 * x_17 - 7.5 x_26 * x_19 + 20.5 x_26 * x_21 + 7.0 x_26 * x_22 - 14.0 x_26 * x_23 + 0.5 x_26 * x_25 + 16.0 x_26 * x_29 - 22.0 x_26 * x_31 + 15.0 x_26 * x_32 - 21.0 x_26 * x_33 + 5.5 x_26 * x_34 - 8.5 x_26 * x_35 + 5.5 x_26 * x_36 - 0.5 x_26 * x_37 - 24.5 x_26 * x_39 - 24.5 x_26 * x_40 + 13.0 x_27 * x_1 + 14.5 x_27 * x_3 + 17.0 x_27 * x_4 + 3.0 x_27 * x_5 - 18.5 x_27 * x_6 + 13.0 x_27 * x_8 - 2.5 x_27 * x_9 - 6.0 x_27 * x_10 + 11.5 x_27 * x_13 + 4.0 x_27 * x_14 + 20.0 x_27 * x_15 - 14.5 x_27 * x_16 + 9.5 x_27 * x_17 - 5.5 x_27 * x_20 - 3.5 x_27 * x_23 + 4.0 x_27 * x_25 - 18.5 x_27 * x_27 - 20.0 x_27 * x_28 - 23.0 x_27 * x_31 + 8.5 x_27 * x_32 + 5.0 x_27 * x_33 - 11.5 x_27 * x_35 - 22.5 x_27 * x_36 + 1.5 x_27 * x_37 + 16.0 x_27 * x_39 - 20.0 x_27 * x_40 + 23.5 x_28 * x_1 - 24.0 x_28 * x_2 + 14.5 x_28 * x_3 + 1.0 x_28 * x_4 - 17.0 x_28 * x_5 - 7.0 x_28 * x_6 - 4.5 x_28 * x_9 - 14.0 x_28 * x_11 + 12.5 x_28 * x_13 + 8.0 x_28 * x_14 - 18.5 x_28 * x_15 - 12.0 x_28 * x_16 + 16.5 x_28 * x_17 + 11.0 x_28 * x_18 + 10.5 x_28 * x_19 + 6.5 x_28 * x_20 - 9.5 x_28 * x_21 - 7.0 x_28 * x_22 + 23.5 x_28 * x_25 - 20.0 x_28 * x_27 + 19.5 x_28 * x_28 - 18.5 x_28 * x_30 - 20.5 x_28 * x_32 - 9.0 x_28 * x_35 - 13.0 x_28 * x_38 - 7.5 x_28 * x_39 + 11.5 x_28 * x_40 + 11.5 x_29 * x_1 + 12.0 x_29 * x_2 + 14.5 x_29 * x_5 - 5.5 x_29 * x_8 - 22.0 x_29 * x_9 - 10.0 x_29 * x_12 + 21.0 x_29 * x_13 + 21.5 x_29 * x_15 - 4.0 x_29 * x_17 - 18.0 x_29 * x_18 - 22.0 x_29 * x_19 - 17.0 x_29 * x_20 - 16.0 x_29 * x_21 - 13.0 x_29 * x_24 - 13.5 x_29 * x_25 + 16.0 x_29 * x_26 + 2.5 x_29 * x_29 - 22.0 x_29 * x_30 + 23.5 x_29 * x_34 + 5.5 x_29 * x_35 - 3.0 x_29 * x_36 - 22.0 x_29 * x_37 + 3.5 x_29 * x_39 + 22.5 x_30 * x_2 + 20.0 x_30 * x_3 - 6.5 x_30 * x_4 + 9.0 x_30 * x_6 - 19.5 x_30 * x_9 + 9.0 x_30 * x_10 - 0.5 x_30 * x_11 + 17.0 x_30 * x_12 - 18.5 x_30 * x_13 + 15.5 x_30 * x_16 - 3.0 x_30 * x_17 + 17.5 x_30 * x_18 - 6.5 x_30 * x_20 - 5.0 x_30 * x_22 + 14.0 x_30 * x_23 + 4.0 x_30 * x_24 - 14.0 x_30 * x_25 - 18.5 x_30 * x_28 - 22.0 x_30 * x_29 + 17.5 x_30 * x_30 - 4.0 x_30 * x_33 + 12.5 x_30 * x_34 + 11.5 x_30 * x_37 - 9.5 x_30 * x_39 - 11.5 x_31 * x_1 - 20.0 x_31 * x_2 + 4.5 x_31 * x_3 - 5.5 x_31 * x_6 + 7.0 x_31 * x_11 + 18.5 x_31 * x_12 - 6.0 x_31 * x_13 + 2.0 x_31 * x_14 + 21.5 x_31 * x_15 - 12.0 x_31 * x_16 - 7.5 x_31 * x_17 - 2.5 x_31 * x_18 - 9.5 x_31 * x_19 - 19.5 x_31 * x_20 + 19.5 x_31 * x_25 - 22.0 x_31 * x_26 - 23.0 x_31 * x_27 - 13.0 x_31 * x_31 - 6.5 x_31 * x_33 + 6.5 x_31 * x_36 + 2.0 x_31 * x_38 + 12.0 x_31 * x_39 - 10.0 x_31 * x_40 + 14.5 x_32 * x_2 + 4.5 x_32 * x_4 + 2.0 x_32 * x_6 - 19.0 x_32 * x_7 + 24.0 x_32 * x_8 + 7.0 x_32 * x_9 + 22.0 x_32 * x_10 - 4.5 x_32 * x_11 - 12.0 x_32 * x_12 + 8.0 x_32 * x_13 - 13.0 x_32 * x_15 + 5.0 x_32 * x_17 - 19.0 x_32 * x_22 + 18.0 x_32 * x_23 - 13.0 x_32 * x_24 - 3.0 x_32 * x_25 + 15.0 x_32 * x_26 + 8.5 x_32 * x_27 - 20.5 x_32 * x_28 + 8.5 x_32 * x_35 - 9.0 x_32 * x_36 - 23.0 x_32 * x_39 - 20.0 x_33 * x_2 + 12.5 x_33 * x_4 - 11.0 x_33 * x_7 + 10.5 x_33 * x_9 + 13.5 x_33 * x_10 - 11.5 x_33 * x_12 + 4.0 x_33 * x_13 - 17.0 x_33 * x_15 - 12.5 x_33 * x_16 - 8.0 x_33 * x_18 + 24.5 x_33 * x_19 - 20.0 x_33 * x_20 - 7.5 x_33 * x_23 - 21.0 x_33 * x_26 + 5.0 x_33 * x_27 - 4.0 x_33 * x_30 - 6.5 x_33 * x_31 - 23.5 x_33 * x_35 + 18.0 x_33 * x_37 + 19.0 x_33 * x_38 - 8.0 x_33 * x_39 - 22.5 x_33 * x_40 + 8.5 x_34 * x_1 - 24.5 x_34 * x_3 + 3.5 x_34 * x_4 - 6.0 x_34 * x_5 + 17.5 x_34 * x_7 + 17.0 x_34 * x_8 - 5.0 x_34 * x_11 + 5.0 x_34 * x_13 + 8.5 x_34 * x_15 - 13.0 x_34 * x_17 + 20.0 x_34 * x_18 - 24.0 x_34 * x_19 - 19.0 x_34 * x_21 + 13.5 x_34 * x_23 - 20.5 x_34 * x_24 + 10.5 x_34 * x_25 + 5.5 x_34 * x_26 + 23.5 x_34 * x_29 + 12.5 x_34 * x_30 + 18.0 x_34 * x_35 + 15.0 x_34 * x_37 - 15.0 x_34 * x_38 + 4.5 x_34 * x_40 + 19.5 x_35 * x_2 - 19.0 x_35 * x_4 - 13.5 x_35 * x_8 - 11.5 x_35 * x_9 - 1.0 x_35 * x_12 - 15.5 x_35 * x_14 + 18.0 x_35 * x_16 - 8.0 x_35 * x_19 + 11.5 x_35 * x_20 - 22.5 x_35 * x_23 + 24.5 x_35 * x_25 - 8.5 x_35 * x_26 - 11.5 x_35 * x_27 - 9.0 x_35 * x_28 + 5.5 x_35 * x_29 + 8.5 x_35 * x_32 - 23.5 x_35 * x_33 + 18.0 x_35 * x_34 + 2.0 x_35 * x_35 - 5.5 x_36 * x_1 - 10.0 x_36 * x_2 - 13.5 x_36 * x_3 + 5.5 x_36 * x_8 + 4.5 x_36 * x_9 - 5.5 x_36 * x_10 - 20.5 x_36 * x_11 + 15.5 x_36 * x_12 - 20.5 x_36 * x_13 - 19.5 x_36 * x_14 - 3.0 x_36 * x_15 + 23.5 x_36 * x_16 + 14.5 x_36 * x_17 + 23.5 x_36 * x_18 + 12.0 x_36 * x_19 - 6.5 x_36 * x_20 - 3.5 x_36 * x_21 + 1.5 x_36 * x_23 - 7.0 x_36 * x_24 - 8.5 x_36 * x_25 + 5.5 x_36 * x_26 - 22.5 x_36 * x_27 - 3.0 x_36 * x_29 + 6.5 x_36 * x_31 - 9.0 x_36 * x_32 - 20.5 x_36 * x_36 + 21.0 x_36 * x_37 - 24.5 x_36 * x_38 - 18.0 x_37 * x_1 + 20.0 x_37 * x_3 + 0.5 x_37 * x_4 - 10.0 x_37 * x_5 - 7.5 x_37 * x_6 + 22.5 x_37 * x_7 + 0.5 x_37 * x_12 - 23.0 x_37 * x_14 + 8.5 x_37 * x_15 + 13.0 x_37 * x_16 + 18.0 x_37 * x_17 - 18.5 x_37 * x_18 + 23.0 x_37 * x_19 - 18.0 x_37 * x_22 + 14.0 x_37 * x_23 - 24.5 x_37 * x_25 - 0.5 x_37 * x_26 + 1.5 x_37 * x_27 - 22.0 x_37 * x_29 + 11.5 x_37 * x_30 + 18.0 x_37 * x_33 + 15.0 x_37 * x_34 + 21.0 x_37 * x_36 + 24.5 x_37 * x_37 - 24.5 x_37 * x_39 - 0.5 x_37 * x_40 - 13.0 x_38 * x_1 - 5.5 x_38 * x_2 - 7.0 x_38 * x_4 + 7.5 x_38 * x_5 + 0.5 x_38 * x_7 - 21.5 x_38 * x_8 - 13.5 x_38 * x_10 + 18.0 x_38 * x_13 + 19.0 x_38 * x_14 + 16.0 x_38 * x_17 + 3.0 x_38 * x_18 - 14.0 x_38 * x_19 - 10.0 x_38 * x_21 - 15.5 x_38 * x_22 - 13.0 x_38 * x_28 + 2.0 x_38 * x_31 + 19.0 x_38 * x_33 - 15.0 x_38 * x_34 - 24.5 x_38 * x_36 + 14.0 x_38 * x_40 + 10.5 x_39 * x_1 + 10.0 x_39 * x_3 + 9.5 x_39 * x_4 - 19.5 x_39 * x_9 + 10.0 x_39 * x_11 + 13.5 x_39 * x_15 + 19.5 x_39 * x_17 + 17.5 x_39 * x_18 + 24.5 x_39 * x_20 + 7.5 x_39 * x_21 - 9.0 x_39 * x_24 - 12.0 x_39 * x_25 - 24.5 x_39 * x_26 + 16.0 x_39 * x_27 - 7.5 x_39 * x_28 + 3.5 x_39 * x_29 - 9.5 x_39 * x_30 + 12.0 x_39 * x_31 - 23.0 x_39 * x_32 - 8.0 x_39 * x_33 - 24.5 x_39 * x_37 - 13.5 x_39 * x_39 + 18.5 x_40 * x_7 - 20.5 x_40 * x_8 + 18.5 x_40 * x_9 - 8.0 x_40 * x_12 - 12.0 x_40 * x_16 - 17.5 x_40 * x_18 + 5.0 x_40 * x_20 + 14.5 x_40 * x_22 + 17.5 x_40 * x_23 - 15.0 x_40 * x_24 + 17.0 x_40 * x_25 - 24.5 x_40 * x_26 - 20.0 x_40 * x_27 + 11.5 x_40 * x_28 - 10.0 x_40 * x_31 - 22.5 x_40 * x_33 + 4.5 x_40 * x_34 - 0.5 x_40 * x_37 + 14.0 x_40 * x_38 + 19.5 x_40 * x_40 ] - 13.0 x_1 + 27.0 x_2 + 0.0 x_3 - 36.0 x_4 + 34.0 x_5 + 43.0 x_6 + 0.0 x_7 + 0.0 x_8 + 0.0 x_9 + 0.0 x_10 + 0.0 x_11 + 11.0 x_12 - 31.0 x_13 - 36.0 x_14 + 0.0 x_15 + 0.0 x_16 + 0.0 x_17 + 0.0 x_18 + 0.0 x_19 - 3.0 x_20 - 28.0 x_21 + 43.0 x_22 - 15.0 x_23 - 34.0 x_24 + 0.0 x_25 - 3.0 x_26 - 22.0 x_27 + 0.0 x_28 + 29.0 x_29 + 0.0 x_30 - 20.0 x_31 - 7.0 x_32 - 6.0 x_33 - 16.0 x_34 - 16.0 x_35 + 0.0 x_36 - 43.0 x_37 + 36.0 x_38 + 21.0 x_39 - 11.0 x_40

Subject To
 e2: [  x_1 * x_4 ] = 0.0
 e3: [  x_1 * x_10 ] = 0.0
 e4: [  x_1 * x_34 ] = 0.0
 e5: [  x_2 * x_17 ] = 0.0
 e6: [  x_2 * x_31 ] = 0.0
 e7: [  x_2 * x_32 ] = 0.0
 e8: [  x_2 * x_36 ] = 0.0
 e9: [  x_3 * x_8 ] = 0.0
 e10: [  x_4 * x_8 ] = 0.0
 e11: [  x_6 * x_5 ] = 0.0
 e12: [  x_6 * x_19 ] = 0.0
 e13: [  x_7 * x_4 ] = 0.0
 e14: [  x_7 * x_5 ] = 0.0
 e15: [  x_7 * x_12 ] = 0.0
 e16: [  x_7 * x_33 ] = 0.0
 e17: [  x_7 * x_34 ] = 0.0
 e18: [  x_7 * x_38 ] = 0.0
 e19: [  x_8 * x_29 ] = 0.0
 e20: [  x_8 * x_36 ] = 0.0
 e21: [  x_8 * x_40 ] = 0.0
 e22: [  x_9 * x_19 ] = 0.0
 e23: [  x_9 * x_28 ] = 0.0
 e24: [  x_10 * x_27 ] = 0.0
 e25: [  x_11 * x_13 ] = 0.0
 e26: [  x_11 * x_17 ] = 0.0
 e27: [  x_12 * x_1 ] = 0.0
 e28: [  x_12 * x_18 ] = 0.0
 e29: [  x_12 * x_24 ] = 0.0
 e30: [  x_12 * x_36 ] = 0.0
 e31: [  x_13 * x_4 ] = 0.0
 e32: [  x_13 * x_5 ] = 0.0
 e33: [  x_13 * x_16 ] = 0.0
 e34: [  x_13 * x_18 ] = 0.0
 e35: [  x_13 * x_30 ] = 0.0
 e36: [  x_14 * x_36 ] = 0.0
 e37: [  x_14 * x_37 ] = 0.0
 e38: [  x_15 * x_4 ] = 0.0
 e39: [  x_15 * x_8 ] = 0.0
 e40: [  x_15 * x_15 ] = 0.0
 e41: [  x_15 * x_26 ] = 0.0
 e42: [  x_15 * x_29 ] = 0.0
 e43: [  x_16 * x_10 ] = 0.0
 e44: [  x_16 * x_11 ] = 0.0
 e45: [  x_16 * x_14 ] = 0.0
 e46: [  x_16 * x_17 ] = 0.0
 e47: [  x_17 * x_7 ] = 0.0
 e48: [  x_17 * x_16 ] = 0.0
 e49: [  x_18 * x_1 ] = 0.0
 e50: [  x_18 * x_5 ] = 0.0
 e51: [  x_18 * x_12 ] = 0.0
 e52: [  x_18 * x_40 ] = 0.0
 e53: [  x_19 * x_10 ] = 0.0
 e54: [  x_19 * x_12 ] = 0.0
 e55: [  x_19 * x_29 ] = 0.0
 e56: [  x_20 * x_7 ] = 0.0
 e57: [  x_20 * x_33 ] = 0.0
 e58: [  x_20 * x_39 ] = 0.0
 e59: [  x_21 * x_34 ] = 0.0
 e60: [  x_22 * x_12 ] = 0.0
 e61: [  x_22 * x_20 ] = 0.0
 e62: [  x_22 * x_30 ] = 0.0
 e63: [  x_22 * x_37 ] = 0.0
 e64: [  x_23 * x_2 ] = 0.0
 e65: [  x_23 * x_14 ] = 0.0
 e66: [  x_23 * x_40 ] = 0.0
 e67: [  x_24 * x_9 ] = 0.0
 e68: [  x_24 * x_12 ] = 0.0
 e69: [  x_24 * x_24 ] = 0.0
 e70: [  x_24 * x_30 ] = 0.0
 e71: [  x_24 * x_36 ] = 0.0
 e72: [  x_24 * x_39 ] = 0.0
 e73: [  x_25 * x_13 ] = 0.0
 e74: [  x_25 * x_15 ] = 0.0
 e75: [  x_25 * x_19 ] = 0.0
 e76: [  x_25 * x_23 ] = 0.0
 e77: [  x_25 * x_25 ] = 0.0
 e78: [  x_25 * x_36 ] = 0.0
 e79: [  x_25 * x_40 ] = 0.0
 e80: [  x_26 * x_22 ] = 0.0
 e81: [  x_26 * x_25 ] = 0.0
 e82: [  x_27 * x_1 ] = 0.0
 e83: [  x_27 * x_4 ] = 0.0
 e84: [  x_28 * x_11 ] = 0.0
 e85: [  x_28 * x_14 ] = 0.0
 e86: [  x_28 * x_30 ] = 0.0
 e87: [  x_28 * x_38 ] = 0.0
 e88: [  x_29 * x_12 ] = 0.0
 e89: [  x_29 * x_18 ] = 0.0
 e90: [  x_29 * x_39 ] = 0.0
 e91: [  x_30 * x_4 ] = 0.0
 e92: [  x_30 * x_22 ] = 0.0
 e93: [  x_30 * x_28 ] = 0.0
 e94: [  x_30 * x_33 ] = 0.0
 e95: [  x_30 * x_34 ] = 0.0
 e96: [  x_31 * x_12 ] = 0.0
 e97: [  x_31 * x_16 ] = 0.0
 e98: [  x_31 * x_27 ] = 0.0
 e99: [  x_32 * x_25 ] = 0.0
 e100: [  x_33 * x_30 ] = 0.0
 e101: [  x_33 * x_35 ] = 0.0
 e102: [  x_34 * x_15 ] = 0.0
 e103: [  x_34 * x_18 ] = 0.0
 e104: [  x_34 * x_21 ] = 0.0
 e105: [  x_34 * x_37 ] = 0.0
 e106: [  x_35 * x_34 ] = 0.0
 e107: [  x_35 * x_35 ] = 0.0
 e108: [  x_36 * x_16 ] = 0.0
 e109: [  x_36 * x_25 ] = 0.0
 e110: [  x_36 * x_26 ] = 0.0
 e111: [  x_37 * x_5 ] = 0.0
 e112: [  x_38 * x_8 ] = 0.0
 e113: [  x_38 * x_18 ] = 0.0
 e114: [  x_38 * x_28 ] = 0.0
 e115: [  x_39 * x_3 ] = 0.0
 e116: [  x_39 * x_18 ] = 0.0
 e117: [  x_39 * x_21 ] = 0.0
 e118: [  x_39 * x_25 ] = 0.0
 e119: [  x_39 * x_30 ] = 0.0

Bounds
 x_1 <= 1.0
 x_2 <= 1.0
 x_3 <= 1.0
 x_4 <= 1.0
 x_5 <= 1.0
 x_6 <= 1.0
 x_7 <= 1.0
 x_8 <= 1.0
 x_9 <= 1.0
 x_10 <= 1.0
 x_11 <= 1.0
 x_12 <= 1.0
 x_13 <= 1.0
 x_14 <= 1.0
 x_15 <= 1.0
 x_16 <= 1.0
 x_17 <= 1.0
 x_18 <= 1.0
 x_19 <= 1.0
 x_20 <= 1.0
 x_21 <= 1.0
 x_22 <= 1.0
 x_23 <= 1.0
 x_24 <= 1.0
 x_25 <= 1.0
 x_26 <= 1.0
 x_27 <= 1.0
 x_28 <= 1.0
 x_29 <= 1.0
 x_30 <= 1.0
 x_31 <= 1.0
 x_32 <= 1.0
 x_33 <= 1.0
 x_34 <= 1.0
 x_35 <= 1.0
 x_36 <= 1.0
 x_37 <= 1.0
 x_38 <= 1.0
 x_39 <= 1.0
 x_40 <= 1.0

End